&CONTROL
  calculation = 'bands'
  !max_seconds = 9500
  outdir = './out/'
  prefix = 'ni'
  pseudo_dir = '../pseudo/'
  restart_mode = 'from_scratch'
  tstress = .true.
  verbosity = 'high'
/
&SYSTEM
  degauss =   2.0000000000d-02
  ecutrho =   320
  ecutwfc =   40
  ibrav = 0
  nat = 4
  ntyp = 1
  occupations = 'smearing'
  smearing = 'mv'
  nspin = 2
  starting_magnetization(1) = 0.6
/
&ELECTRONS
  conv_thr =   1.0000000000d-10
  diagonalization = 'david'
 diago_full_acc = .true.
 electron_maxstep = 600
  mixing_beta =   7.0000000000d-01
  mixing_mode = 'plain'
/
ATOMIC_SPECIES
Ni     58.6934 ni_pbe_v1.4.uspp.F.UPF
ATOMIC_POSITIONS angstrom
Ni           0.0000000000       0.0000000000       0.0000000000
Ni           0.0000000000       1.7620700000       1.7620700000
Ni           1.7620700000       0.0000000000       1.7620700000
Ni           1.7620700000       1.7620700000       0.0000000000
K_POINTS crystal_b
5
0 0 0 10
0.5 0 0 10
0.5 0.5 0 10
0.0 0.0 0.5 15
0 0 0 0
CELL_PARAMETERS angstrom
      3.5241400000       0.0000000000       0.0000000000
      0.0000000000       3.5241400000       0.0000000000
      0.0000000000       0.0000000000       3.5241400000
