 &dos
    outdir='./out'
    prefix='si'
    fildos='si.dos',
    Emin=2.0, Emax=9.0, DeltaE=0.1
 /