&projwfc
    outdir='./out/'
    prefix='si'
    Emin=2.0, Emax=9.0, DeltaE=0.1
    ngauss=1, degauss=0.02
 /
