&CONTROL
  calculation = 'relax'
  !max_seconds = 9500
  outdir = './out/'
  prefix = 'ni'
  pseudo_dir = '../pseudo/'
  restart_mode = 'from_scratch'
  !verbosity = 'high'
  tprnfor = .true.
  etot_conv_thr =   1.0000000000d-03
  forc_conv_thr =   1.0000000000d-03
/
&SYSTEM
  degauss =   2.0000000000d-02
  ecutrho =   160
  ecutwfc =   20
  ibrav = 0
  nat = 12
  ntyp = 1
  occupations = 'smearing'
  smearing = 'mv'
  !nspin = 2
  !starting_magnetization(1) = 0.6
/
&ELECTRONS
  conv_thr =   1.0000000000d-8
  mixing_beta =   7.0000000000d-01
  mixing_mode = 'local-TF'
/
&IONS
/
ATOMIC_SPECIES
Ni     58.6934 ni_pbe_v1.4.uspp.F.UPF
ATOMIC_POSITIONS angstrom
Ni           0.0000000000       0.0000000000       0.0000000000 0 0 0
Ni           0.0000000000       1.7620700000       1.7620700000 0 0 0
Ni           1.7620700000       0.0000000000       1.7620700000 0 0 0
Ni           1.7620700000       1.7620700000       0.0000000000 0 0 0
Ni           0.0000000000       0.0000000000       3.5241000000 1 1 1
Ni           0.0000000000       1.7620700000       5.28617 1 1 1
Ni           1.7620700000       0.0000000000       5.28617 1 1 1
Ni           1.7620700000       1.7620700000       3.5241000000 1 1 1
Ni           0.0000000000       0.0000000000       7.0482 1 1 1
Ni           0.0000000000       1.7620700000       8.81027 1 1 1
Ni           1.7620700000       0.0000000000       8.81027 1 1 1
Ni           1.7620700000       1.7620700000       7.0482 1 1 1
K_POINTS automatic
4 4 1 0 0 0
CELL_PARAMETERS angstrom
      3.5241400000       0.0000000000       0.0000000000
      0.0000000000       3.5241400000       0.0000000000
      0.0000000000       0.0000000000       20.000000000
