&CONTROL
  calculation = 'relax'
  !max_seconds = 9500
  outdir = './out/'
  prefix = 'ni'
  pseudo_dir = '../pseudo/'
  restart_mode = 'from_scratch'
  tstress = .true.
  verbosity = 'high'
  tprnfor = .true.
  tstress = .true.
  etot_conv_thr =   2.0000000000d-05
  forc_conv_thr =   1.0000000000d-04
/
&SYSTEM
  degauss =   2.0000000000d-02
  ecutrho =   320
  ecutwfc =   40
  ibrav = 0
  nat = 3
  ntyp = 1
  occupations = 'smearing'
  smearing = 'mv'
  nspin = 2
  starting_magnetization(1) = 0.6
/
&ELECTRONS
  conv_thr =   1.0000000000d-10
  diagonalization = 'david'
  electron_maxstep = 600
  mixing_beta =   7.0000000000d-01
  mixing_mode = 'plain'
/
ATOMIC_SPECIES
Ni     58.6934 ni_pbe_v1.4.uspp.F.UPF
ATOMIC_POSITIONS angstrom
Ni           0.0000000000       0.0000000000       0.0000000000 0 0 0
Ni           0.0000000000       1.7620700000       1.7620700000 0 0 0
Ni           1.7620700000       0.0000000000       1.7620700000 0 0 0
Ni           1.7620700000       1.7620700000       0.0000000000 0 0 0
Ni           0.0000000000       0.0000000000       3.5241000000
Ni           0.0000000000       1.7620700000       5.28617
Ni           1.7620700000       0.0000000000       5.28617
Ni           1.7620700000       1.7620700000       3.5241000000
Ni           0.0000000000       0.0000000000       7.0482
Ni           0.0000000000       1.7620700000       8.81027
Ni           1.7620700000       0.0000000000       8.81027
Ni           1.7620700000       1.7620700000       7.0482
K_POINTS automatic
6 6 1 0 0 0
CELL_PARAMETERS angstrom
      3.5241400000       0.0000000000       0.0000000000
      0.0000000000       3.5241400000       0.0000000000
      0.0000000000       0.0000000000       20.0
