&CONTROL
   calculation      = 'scf'
   outdir           = './out'
   pseudo_dir       = '../pseudo/'
   prefix           = 'isolated'
/
&SYSTEM
   ibrav            = 1
   celldm(1)        = 30
   ecutwfc          = 40.0
   ntyp             = 1
   nat              = 1
   nspin            = 2
   occupations      = 'smearing'
   degauss = 0.01
   tot_magnetization = 2
   nbnd = 5
/
&ELECTRONS
   conv_thr         = 1.d-12
/
ATOMIC_SPECIES
Si 28.086 Si.pbe_PseudoDojo.UPF

K_POINTS gamma

ATOMIC_POSITIONS alat
Si  0.0000000000 0.0000000000 0.0000000000

~                                          
